
  12    4
  10   10   10   10

   0   0   0   0   0   3 2 3 4 
   1  10  10  10  10   3 8 7 5 
   9  10  10  10  10   3 8 7 5 
   8  10  10  10  10   2 7 6 
   6  10  10  10  10   1 6 
   9  10  10  10  10   2 11 9 
   1  10  10  10  10   2 11 10 
   2  10  10  10  10   1 9 
   4  10  10  10  10   1 10 
   1  10  10  10  10   1 12
   8  10  10  10  10   1 12
   0   0   0   0   0   0 
